
  17    0


   0  10 2 3 4 5 7 12 13 14 15 16 
   6   2 11 10 
   5   2 11 9 
   2   2 10 8 
   7   1 6 
   5   1 8 
  10   1 9 
   3   1 17
   5   1 17
   6   1 17
   2   1 17
   9   1 17
   7   1 17
   8   1 17
  10   1 17
   6   1 17
   0   0 
